2025-10-24 23:13:00,953 - INFO - 📌 第一个 epoch：默认所有模块使用 checkpoint
2025-10-24 23:36:13,571 - INFO - Epoch 1 completed in 1392.635253 seconds
2025-10-24 23:44:04,568 - INFO - torch.cuda.max_memory_reserved() : 0.560546875
2025-10-25 00:07:26,231 - INFO - 
[🔁 拟合反向传播时间模型]
2025-10-25 00:07:26,231 - INFO - 总反向传播时间: 1394.350271s
2025-10-25 00:07:26,231 - INFO - 拟合模型: backward_total ≈ 2 × (A + B) + b
2025-10-25 00:07:26,231 - INFO - A = 875.377106, B = 69.723406, b = 449.249759s
2025-10-25 00:07:26,260 - INFO - Set parameter LicenseID to value 2706656
2025-10-25 00:07:26,263 - INFO - Set parameter LogToConsole to value 1
2025-10-25 00:07:26,263 - INFO - Set parameter LogFile to value ""
2025-10-25 00:07:26,263 - INFO - Set parameter Threads to value 12
2025-10-25 00:07:26,263 - INFO - Set parameter TimeLimit to value 3600
2025-10-25 00:07:26,263 - INFO - Set parameter OptimalityTol to value 0.0001
2025-10-25 00:07:26,263 - INFO - Set parameter IntFeasTol to value 1e-05
2025-10-25 00:07:26,263 - INFO - Set parameter StartNodeLimit to value 10000000
2025-10-25 00:07:26,318 - INFO - Set parameter TimeLimit to value 3600
2025-10-25 00:07:26,318 - INFO - 
2025-10-25 00:07:26,318 - INFO - 
2025-10-25 00:07:26,318 - INFO - Restarting solve
2025-10-25 00:07:26,318 - INFO - 
2025-10-25 00:07:26,318 - INFO - 
2025-10-25 00:07:26,319 - INFO - Gurobi Optimizer version 12.0.3 build v12.0.3rc0 (linux64 - "Ubuntu 20.04.6 LTS")
2025-10-25 00:07:26,320 - INFO - 
2025-10-25 00:07:26,320 - INFO - CPU model: Intel(R) Xeon(R) Platinum 8260 CPU @ 2.40GHz, instruction set [SSE2|AVX|AVX2|AVX512]
2025-10-25 00:07:26,320 - INFO - Thread count: 48 physical cores, 96 logical processors, using up to 12 threads
2025-10-25 00:07:26,320 - INFO - 
2025-10-25 00:07:26,320 - INFO - Non-default parameters:
2025-10-25 00:07:26,320 - INFO - TimeLimit  3600
2025-10-25 00:07:26,320 - INFO - OptimalityTol  0.0001
2025-10-25 00:07:26,320 - INFO - StartNodeLimit  10000000
2025-10-25 00:07:26,320 - INFO - Threads  12
2025-10-25 00:07:26,320 - INFO - 
2025-10-25 00:07:26,320 - INFO - Optimize a model with 5603 rows, 3584 columns and 15200 nonzeros
2025-10-25 00:07:26,320 - INFO - Model fingerprint: 0x768841ac
2025-10-25 00:07:26,320 - INFO - Variable types: 1024 continuous, 2560 integer (2560 binary)
2025-10-25 00:07:26,320 - INFO - Coefficient statistics:
2025-10-25 00:07:26,320 - INFO -   Matrix range     [1e+00, 2e+14]
2025-10-25 00:07:26,320 - INFO -   Objective range  [4e+04, 2e+05]
2025-10-25 00:07:26,320 - INFO -   Bounds range     [1e+00, 7e+15]
2025-10-25 00:07:26,320 - INFO -   RHS range        [1e+00, 7e+15]
2025-10-25 00:07:26,320 - INFO - Warning: Model contains large matrix coefficient range
2025-10-25 00:07:26,320 - INFO - Warning: Model contains large rhs
2025-10-25 00:07:26,321 - INFO - Warning: Model contains large bounds
2025-10-25 00:07:26,321 - INFO -          Consider reformulating model or setting NumericFocus parameter
2025-10-25 00:07:26,321 - INFO -          to avoid numerical issues.
2025-10-25 00:07:26,336 - INFO - Presolve removed 4443 rows and 2130 columns
2025-10-25 00:07:26,337 - INFO - Presolve time: 0.01s
2025-10-25 00:07:26,337 - INFO - Presolved: 1160 rows, 1454 columns, 4180 nonzeros
2025-10-25 00:07:26,338 - INFO - Variable types: 0 continuous, 1454 integer (1085 binary)
2025-10-25 00:07:26,341 - INFO - Found heuristic solution: objective 1.597280e+07
2025-10-25 00:07:26,343 - INFO - Found heuristic solution: objective 4772468.0000
2025-10-25 00:07:26,345 - INFO - Found heuristic solution: objective 4409721.0000
2025-10-25 00:07:26,347 - INFO - Found heuristic solution: objective 4397572.0000
2025-10-25 00:07:26,349 - INFO - 
2025-10-25 00:07:26,350 - INFO - Root relaxation: objective 2.939814e+06, 448 iterations, 0.00 seconds (0.00 work units)
2025-10-25 00:07:26,358 - INFO - 
2025-10-25 00:07:26,358 - INFO -     Nodes    |    Current Node    |     Objective Bounds      |     Work
2025-10-25 00:07:26,358 - INFO -  Expl Unexpl |  Obj  Depth IntInf | Incumbent    BestBd   Gap | It/Node Time
2025-10-25 00:07:26,358 - INFO - 
2025-10-25 00:07:26,358 - INFO -      0     0 2939814.00    0   12 4397572.00 2939814.00  33.1%     -    0s
2025-10-25 00:07:26,360 - INFO - H    0     0                    4334855.0000 2939814.00  32.2%     -    0s
2025-10-25 00:07:26,362 - INFO - H    0     0                    2939814.0000 2939814.00  0.00%     -    0s
2025-10-25 00:07:26,362 - INFO -      0     0 2939814.00    0   12 2939814.00 2939814.00  0.00%     -    0s
2025-10-25 00:07:26,364 - INFO - 
2025-10-25 00:07:26,364 - INFO - Explored 1 nodes (629 simplex iterations) in 0.04 seconds (0.03 work units)
2025-10-25 00:07:26,364 - INFO - Thread count was 12 (of 96 available processors)
2025-10-25 00:07:26,364 - INFO - 
2025-10-25 00:07:26,364 - INFO - Solution count 6: 2.93981e+06 4.33486e+06 4.39757e+06 ... 1.59728e+07
2025-10-25 00:07:26,364 - INFO - 
2025-10-25 00:07:26,365 - INFO - Optimal solution found (tolerance 1.00e-04)
2025-10-25 00:07:26,365 - INFO - Best objective 2.939814000000e+06, best bound 2.939814000000e+06, gap 0.0000%
2025-10-25 00:07:26,375 - INFO - 规划前的显存GB：6.0
2025-10-25 00:07:26,375 - INFO - 规划后的显存GB：1.4015579223632812
2025-10-25 00:07:26,375 - INFO - ✅ 最优策略：[1, 1, 1, 1, 1, 1, 1, 1, 1, 1, 1, 1, 1, 1, 1, 1]
2025-10-25 00:07:26,375 - INFO - 📌 checkpoint 的欧氏长度:, []
2025-10-25 00:07:26,375 - INFO - 📌 checkpoint 的余弦长度:, []
2025-10-25 00:07:26,375 - INFO - 💾 最终显存峰值：%.2f MB % 1269.9289474487305
2025-10-25 00:07:26,376 - INFO - Epoch 2 completed in 1401.803824 seconds
2025-10-25 00:07:26,376 - INFO - torch.cuda.max_memory_reserved() : 0.560546875
2025-10-25 00:24:15,468 - INFO - Epoch 3 completed in 1009.089007 seconds
2025-10-25 00:24:15,468 - INFO - 
====================== [第1个 Epoch 收集统计数据] ======================
2025-10-25 00:24:15,469 - INFO - 
🔍 EUCLIDEAN modules:
2025-10-25 00:24:15,469 - INFO - [Shapelet 128] forward_avg=0.001389s over 10912 calls | peak=14.80MB | final=0.00MB
2025-10-25 00:24:15,469 - INFO - [Shapelet 694] forward_avg=0.001371s over 10912 calls | peak=72.14MB | final=0.00MB
2025-10-25 00:24:15,469 - INFO - [Shapelet 1261] forward_avg=0.001357s over 10912 calls | peak=114.19MB | final=0.00MB
2025-10-25 00:24:15,469 - INFO - [Shapelet 1828] forward_avg=0.001364s over 10912 calls | peak=138.23MB | final=0.00MB
2025-10-25 00:24:15,469 - INFO - [Shapelet 2395] forward_avg=0.001444s over 10912 calls | peak=150.28MB | final=0.00MB
2025-10-25 00:24:15,469 - INFO - [Shapelet 2962] forward_avg=0.001504s over 10912 calls | peak=146.73MB | final=0.00MB
2025-10-25 00:24:15,469 - INFO - [Shapelet 3529] forward_avg=0.001555s over 10912 calls | peak=128.99MB | final=0.00MB
2025-10-25 00:24:15,469 - INFO - [Shapelet 4096] forward_avg=0.001520s over 10912 calls | peak=96.53MB | final=0.00MB
2025-10-25 00:24:15,469 - INFO - 
🔍 COSINE modules:
2025-10-25 00:24:15,469 - INFO - [Shapelet 128] forward_avg=0.001961s over 10912 calls | peak=9.79MB | final=0.00MB
2025-10-25 00:24:15,469 - INFO - [Shapelet 694] forward_avg=0.001832s over 10912 calls | peak=48.03MB | final=0.00MB
2025-10-25 00:24:15,469 - INFO - [Shapelet 1261] forward_avg=0.001831s over 10912 calls | peak=76.03MB | final=0.00MB
2025-10-25 00:24:15,469 - INFO - [Shapelet 1828] forward_avg=0.001829s over 10912 calls | peak=92.03MB | final=0.00MB
2025-10-25 00:24:15,469 - INFO - [Shapelet 2395] forward_avg=0.001909s over 10912 calls | peak=100.02MB | final=0.00MB
2025-10-25 00:24:15,469 - INFO - [Shapelet 2962] forward_avg=0.001874s over 10912 calls | peak=97.60MB | final=0.00MB
2025-10-25 00:24:15,469 - INFO - [Shapelet 3529] forward_avg=0.002169s over 10912 calls | peak=85.74MB | final=0.00MB
2025-10-25 00:24:15,469 - INFO - [Shapelet 4096] forward_avg=0.001831s over 10912 calls | peak=64.07MB | final=0.00MB
2025-10-25 00:24:15,469 - INFO - 
🔍 CROSS modules:
2025-10-25 00:24:15,469 - INFO - [Shapelet 128] forward_avg=0.000391s over 10912 calls
2025-10-25 00:24:15,469 - INFO - [Shapelet 694] forward_avg=0.000374s over 10912 calls
2025-10-25 00:24:15,469 - INFO - [Shapelet 1261] forward_avg=0.000372s over 10912 calls
2025-10-25 00:24:15,469 - INFO - [Shapelet 1828] forward_avg=0.000371s over 10912 calls
2025-10-25 00:24:15,469 - INFO - [Shapelet 2395] forward_avg=0.000388s over 10912 calls
2025-10-25 00:24:15,469 - INFO - [Shapelet 2962] forward_avg=0.000404s over 10912 calls
2025-10-25 00:24:15,469 - INFO - [Shapelet 3529] forward_avg=0.000433s over 10912 calls
2025-10-25 00:24:15,469 - INFO - [Shapelet 4096] forward_avg=0.000463s over 10912 calls
2025-10-25 00:24:15,469 - INFO - 
💾 模型第一次反向传播阶段的显存峰值（所有模块中的最大值）: 1211.74 MB
2025-10-25 00:24:15,469 - INFO - 
💾 模型初始显存: 3.17 MB
2025-10-25 00:24:15,469 - INFO - =======================================================================

2025-10-25 00:24:15,470 - INFO - torch.cuda.max_memory_reserved() : 1.310546875
2025-10-25 00:41:00,569 - INFO - Epoch 4 completed in 1005.095759 seconds
2025-10-25 00:41:00,570 - INFO - torch.cuda.max_memory_reserved() : 1.310546875
2025-10-25 00:57:43,802 - INFO - Epoch 5 completed in 1003.227625 seconds
2025-10-25 00:57:43,803 - INFO - torch.cuda.max_memory_reserved() : 1.310546875
2025-10-25 01:14:29,110 - INFO - Epoch 6 completed in 1005.303209 seconds
2025-10-25 01:14:29,110 - INFO - torch.cuda.max_memory_reserved() : 1.310546875
2025-10-25 01:31:19,933 - INFO - Epoch 7 completed in 1010.818969 seconds
2025-10-25 01:31:19,933 - INFO - torch.cuda.max_memory_reserved() : 1.310546875
2025-10-25 01:48:06,787 - INFO - Epoch 8 completed in 1006.850438 seconds
2025-10-25 01:48:06,787 - INFO - torch.cuda.max_memory_reserved() : 1.310546875
2025-10-25 02:04:44,177 - INFO - Epoch 9 completed in 997.386207 seconds
2025-10-25 02:04:44,178 - INFO - torch.cuda.max_memory_reserved() : 1.310546875
2025-10-25 02:21:19,345 - INFO - Epoch 10 completed in 995.163673 seconds
2025-10-25 02:28:09,947 - INFO - torch.cuda.max_memory_reserved() : 1.310546875
2025-10-25 02:28:09,952 - INFO - !!!采用策略后的几个epoch 平均时间:1004.1168609857559
2025-10-25 02:28:09,952 - INFO - 



